MST08
Position Depot: Random
Horizon for Depot: Small
Position of customers: Mixt
Distribution of the demand: Medium
Width of time windows: Tight
Distribution of the service: Large

VEHICLE 
NUMBER 	 CAPACITY 
 16 	 	 101 
 
CUSTOMER
CUST NO. 	 XCOORD.  	 YCOORD. 	 DEMAND 	 READY TIME 	 DUE DATE 	 SERVICE TIME 
 0 	 	 610 	 	 816 	 	 0 	 	 0 	 	 1820 	 	 0 
  1 	 	 993 	 	 737 	 	 8 	 	 513 	 	 589 	 	 110 
  2 	 	 650 	 	 499 	 	 1 	 	 1627 	 	 1820 	 	 102 
  3 	 	 8 	 	 613 	 	 2 	 	 583 	 	 698 	 	 140 
  4 	 	 954 	 	 919 	 	 6 	 	 1120 	 	 1220 	 	 107 
  5 	 	 458 	 	 544 	 	 8 	 	 173 	 	 342 	 	 139 
  6 	 	 615 	 	 512 	 	 88 	 	 347 	 	 455 	 	 136 
  7 	 	 992 	 	 888 	 	 9 	 	 274 	 	 427 	 	 172 
  8 	 	 352 	 	 525 	 	 6 	 	 1026 	 	 1224 	 	 159 
  9 	 	 982 	 	 820 	 	 6 	 	 964 	 	 1120 	 	 126 
  10 	 	 486 	 	 536 	 	 3 	 	 502 	 	 646 	 	 131 
  11 	 	 924 	 	 735 	 	 7 	 	 410 	 	 526 	 	 118 
  12 	 	 58 	 	 668 	 	 2 	 	 1146 	 	 1200 	 	 130 
  13 	 	 538 	 	 438 	 	 4 	 	 294 	 	 423 	 	 130 
  14 	 	 990 	 	 721 	 	 4 	 	 420 	 	 584 	 	 178 
  15 	 	 773 	 	 681 	 	 10 	 	 1454 	 	 1639 	 	 140 
  16 	 	 508 	 	 563 	 	 5 	 	 1072 	 	 1181 	 	 108 
  17 	 	 421 	 	 541 	 	 3 	 	 309 	 	 367 	 	 172 
  18 	 	 905 	 	 717 	 	 8 	 	 340 	 	 485 	 	 140 
  19 	 	 535 	 	 620 	 	 2 	 	 1735 	 	 1811 	 	 118 
  20 	 	 995 	 	 920 	 	 5 	 	 734 	 	 805 	 	 146 
  21 	 	 930 	 	 917 	 	 2 	 	 282 	 	 369 	 	 130 
  22 	 	 976 	 	 805 	 	 57 	 	 1136 	 	 1246 	 	 133 
  23 	 	 724 	 	 498 	 	 54 	 	 760 	 	 949 	 	 173 
  24 	 	 598 	 	 504 	 	 92 	 	 1009 	 	 1152 	 	 133 
  25 	 	 907 	 	 929 	 	 55 	 	 714 	 	 899 	 	 118 
  26 	 	 961 	 	 167 	 	 10 	 	 647 	 	 811 	 	 169 
  27 	 	 852 	 	 630 	 	 10 	 	 1474 	 	 1529 	 	 183 
  28 	 	 794 	 	 247 	 	 4 	 	 1023 	 	 1076 	 	 172 
  29 	 	 117 	 	 694 	 	 4 	 	 981 	 	 1117 	 	 192 
  30 	 	 109 	 	 308 	 	 55 	 	 599 	 	 784 	 	 143 
  31 	 	 586 	 	 140 	 	 69 	 	 610 	 	 744 	 	 140 
  32 	 	 617 	 	 474 	 	 9 	 	 621 	 	 703 	 	 164 
  33 	 	 535 	 	 589 	 	 4 	 	 116 	 	 262 	 	 103 
  34 	 	 214 	 	 128 	 	 4 	 	 1729 	 	 1820 	 	 186 
  35 	 	 674 	 	 394 	 	 4 	 	 1073 	 	 1256 	 	 183 
  36 	 	 980 	 	 481 	 	 6 	 	 702 	 	 861 	 	 136 
  37 	 	 444 	 	 96 	 	 6 	 	 1635 	 	 1734 	 	 183 
  38 	 	 309 	 	 611 	 	 9 	 	 1626 	 	 1820 	 	 189 
  39 	 	 226 	 	 592 	 	 4 	 	 1502 	 	 1581 	 	 155 
  40 	 	 351 	 	 494 	 	 3 	 	 300 	 	 454 	 	 101 
  41 	 	 614 	 	 124 	 	 2 	 	 662 	 	 761 	 	 200 
  42 	 	 598 	 	 67 	 	 8 	 	 632 	 	 824 	 	 101 
  43 	 	 324 	 	 565 	 	 4 	 	 397 	 	 555 	 	 143 
  44 	 	 957 	 	 529 	 	 10 	 	 744 	 	 837 	 	 104 
  45 	 	 739 	 	 284 	 	 9 	 	 657 	 	 748 	 	 183 
  46 	 	 459 	 	 878 	 	 89 	 	 995 	 	 1181 	 	 150 
  47 	 	 69 	 	 40 	 	 68 	 	 1446 	 	 1610 	 	 111 
  48 	 	 668 	 	 669 	 	 1 	 	 229 	 	 340 	 	 188 
  49 	 	 118 	 	 167 	 	 52 	 	 1130 	 	 1200 	 	 185 
  50 	 	 100 	 	 839 	 	 2 	 	 961 	 	 1112 	 	 142 
 